unknown
(model
; cardinality of BoundSet is 1
(declare-sort BoundSet 0)
; rep: @uc_BoundSet_0
; cardinality of UnboundSet is 1
(declare-sort UnboundSet 0)
(declare-fun groundTerm_2 () UnboundSet)
(define-fun IsInBlueWrapping ((BOUND_VARIABLE_376 BoundSet)) Bool true)
(define-fun IsAboutToKick ((BOUND_VARIABLE_376 BoundSet)) Bool true)
(define-fun IsInRedCloth ((BOUND_VARIABLE_376 BoundSet)) Bool false)
(define-fun IsDrinksMilk ((BOUND_VARIABLE_376 BoundSet)) Bool false)
)
sat
(model
; cardinality of BoundSet is 1
(declare-sort BoundSet 0)
; rep: @uc_BoundSet_0
; cardinality of UnboundSet is 1
(declare-sort UnboundSet 0)
(declare-fun groundTerm_4 () UnboundSet)
(define-fun IsInBlueWrapping ((BOUND_VARIABLE_400 BoundSet)) Bool true)
(define-fun IsAboutToKick ((BOUND_VARIABLE_400 BoundSet)) Bool true)
(define-fun IsInRedCloth ((BOUND_VARIABLE_400 BoundSet)) Bool false)
(define-fun IsDrinksMilk ((BOUND_VARIABLE_400 BoundSet)) Bool false)
)
